c CNF file corresponding to a (partial) station packing problem.
p cnf 5854 229
5838 5839 5840 5841 5842 5843 5844 5845 5846 5847 5848 5849 5850 5851 5852 5853 5854 0
-5838 -5839 0
-5838 -5840 0
-5838 -5841 0
-5838 -5842 0
-5838 -5843 0
-5838 -5844 0
-5838 -5845 0
-5838 -5846 0
-5838 -5847 0
-5838 -5848 0
-5838 -5849 0
-5838 -5850 0
-5838 -5851 0
-5838 -5852 0
-5838 -5853 0
-5838 -5854 0
-5839 -5840 0
-5839 -5841 0
-5839 -5842 0
-5839 -5843 0
-5839 -5844 0
-5839 -5845 0
-5839 -5846 0
-5839 -5847 0
-5839 -5848 0
-5839 -5849 0
-5839 -5850 0
-5839 -5851 0
-5839 -5852 0
-5839 -5853 0
-5839 -5854 0
-5840 -5841 0
-5840 -5842 0
-5840 -5843 0
-5840 -5844 0
-5840 -5845 0
-5840 -5846 0
-5840 -5847 0
-5840 -5848 0
-5840 -5849 0
-5840 -5850 0
-5840 -5851 0
-5840 -5852 0
-5840 -5853 0
-5840 -5854 0
-5841 -5842 0
-5841 -5843 0
-5841 -5844 0
-5841 -5845 0
-5841 -5846 0
-5841 -5847 0
-5841 -5848 0
-5841 -5849 0
-5841 -5850 0
-5841 -5851 0
-5841 -5852 0
-5841 -5853 0
-5841 -5854 0
-5842 -5843 0
-5842 -5844 0
-5842 -5845 0
-5842 -5846 0
-5842 -5847 0
-5842 -5848 0
-5842 -5849 0
-5842 -5850 0
-5842 -5851 0
-5842 -5852 0
-5842 -5853 0
-5842 -5854 0
-5843 -5844 0
-5843 -5845 0
-5843 -5846 0
-5843 -5847 0
-5843 -5848 0
-5843 -5849 0
-5843 -5850 0
-5843 -5851 0
-5843 -5852 0
-5843 -5853 0
-5843 -5854 0
-5844 -5845 0
-5844 -5846 0
-5844 -5847 0
-5844 -5848 0
-5844 -5849 0
-5844 -5850 0
-5844 -5851 0
-5844 -5852 0
-5844 -5853 0
-5844 -5854 0
-5845 -5846 0
-5845 -5847 0
-5845 -5848 0
-5845 -5849 0
-5845 -5850 0
-5845 -5851 0
-5845 -5852 0
-5845 -5853 0
-5845 -5854 0
-5846 -5847 0
-5846 -5848 0
-5846 -5849 0
-5846 -5850 0
-5846 -5851 0
-5846 -5852 0
-5846 -5853 0
-5846 -5854 0
-5847 -5848 0
-5847 -5849 0
-5847 -5850 0
-5847 -5851 0
-5847 -5852 0
-5847 -5853 0
-5847 -5854 0
-5848 -5849 0
-5848 -5850 0
-5848 -5851 0
-5848 -5852 0
-5848 -5853 0
-5848 -5854 0
-5849 -5850 0
-5849 -5851 0
-5849 -5852 0
-5849 -5853 0
-5849 -5854 0
-5850 -5851 0
-5850 -5852 0
-5850 -5853 0
-5850 -5854 0
-5851 -5852 0
-5851 -5853 0
-5851 -5854 0
-5852 -5853 0
-5852 -5854 0
-5853 -5854 0
1 2 3 4 5 6 7 8 9 10 11 12 13 14 0
-1 -2 0
-1 -3 0
-1 -4 0
-1 -5 0
-1 -6 0
-1 -7 0
-1 -8 0
-1 -9 0
-1 -10 0
-1 -11 0
-1 -12 0
-1 -13 0
-1 -14 0
-2 -3 0
-2 -4 0
-2 -5 0
-2 -6 0
-2 -7 0
-2 -8 0
-2 -9 0
-2 -10 0
-2 -11 0
-2 -12 0
-2 -13 0
-2 -14 0
-3 -4 0
-3 -5 0
-3 -6 0
-3 -7 0
-3 -8 0
-3 -9 0
-3 -10 0
-3 -11 0
-3 -12 0
-3 -13 0
-3 -14 0
-4 -5 0
-4 -6 0
-4 -7 0
-4 -8 0
-4 -9 0
-4 -10 0
-4 -11 0
-4 -12 0
-4 -13 0
-4 -14 0
-5 -6 0
-5 -7 0
-5 -8 0
-5 -9 0
-5 -10 0
-5 -11 0
-5 -12 0
-5 -13 0
-5 -14 0
-6 -7 0
-6 -8 0
-6 -9 0
-6 -10 0
-6 -11 0
-6 -12 0
-6 -13 0
-6 -14 0
-7 -8 0
-7 -9 0
-7 -10 0
-7 -11 0
-7 -12 0
-7 -13 0
-7 -14 0
-8 -9 0
-8 -10 0
-8 -11 0
-8 -12 0
-8 -13 0
-8 -14 0
-9 -10 0
-9 -11 0
-9 -12 0
-9 -13 0
-9 -14 0
-10 -11 0
-10 -12 0
-10 -13 0
-10 -14 0
-11 -12 0
-11 -13 0
-11 -14 0
-12 -13 0
-12 -14 0
-13 -14 0
